TERM = { '.', 'in_10', 'in_1', 'in_6', 'in_9', 'in_16', 'in_0', 's(4)', 'in_12', 'in_3', 's(1)', 'in_11', 'in_14', 'in_17', 's(2)', 'in_2', 'in_8', 's(0)', 'in_15', 'in_13', 's(3)', 'local_0', 'local_1', 'in_4', 'in_7', 'in_5'};
null = '.';
s = 16;
n = 23;
ndeps = 10;
max_registers_sz = 5;
NR = 2;
registers = [|'local_0', 'in_17', |'local_1', 's(3)'|];
dependencies = [|'i32.store_0', 'i32.store8_1', |'i32.store8_1', 'i32.store_2', |'i32.store_2', 'i32.store16_3', |'i32.store16_3', 'i32.load16_s_6', |'i32.store16_3', 'i32.load8_s_8', |'i32.load16_s_6', 'i32.store_10', |'i32.load8_s_8', 'i32.store_10', |'i32.store_10', 'i32.load_11', |'i32.load_11', 'i32.store_13', |'i32.store_13', 'i32.store16_14'|];
GET_ENUM = { GET1, GET2, GET3, GET4, GET5, GET6, GET7};
SET_ENUM = { SET1, SET2, SET3, SET4, SET5, SET6, SET7};
TEE_ENUM = { TEE1, TEE2, TEE3, TEE4, TEE5, TEE6, TEE7};
N = 12;
OP = { 'i32.store_0', 'i32.store8_1', 'i32.store_2', 'i32.store16_3', 'i32.sub_0', 'i32.add_0', 'i32.load16_s_6', 'i32.load8_s_8', 'i32.store_10', 'i32.load_11', 'i32.store_13', 'i32.store16_14' };
in_ops = [2, 2, 2, 2, 2, 2, 1, 1, 2, 1, 2, 2 ];
out_ops = [0, 0, 0, 0, 1, 1, 1, 1, 0, 1, 0, 0 ];
in1 = ['in_0', 'in_2', 'in_4', 'in_6', 'in_8', 's(0)', 's(1)', 'in_11', 'in_12', 'in_14', 's(3)', 'in_15' ];
in2 = ['in_1', 'in_3', 'in_5', 'in_7', 'in_9', 'in_10', '.', '.', 'in_13', '.', 's(4)', 'in_16' ];
in3 = ['.', '.', '.', '.', '.', '.', '.', '.', '.', '.', '.', '.' ];
out1 = ['.', '.', '.', '.', 's(0)', 's(1)', 's(2)', 's(3)', '.', 's(4)', '.', '.' ];
out2 = ['.', '.', '.', '.', '.', '.', '.', '.', '.', '.', '.', '.' ];
out3 = ['.', '.', '.', '.', '.', '.', '.', '.', '.', '.', '.', '.' ];
comm = [false, false, false, false, false, true, false, false, false, false, false, false ];
gas = [1, 1, 1, 1, 1, 1, 1, 1, 1, 1, 1, 1 ];
sz = [1, 1, 1, 1, 1, 1, 1, 1, 1, 1, 1, 1 ];
stor = [true, true, true, true, false, false, false, false, true, false, true, true ];
lb = [ 1, 1, 1, 1, 1, 1, 1, 1, 1, 1, 1, 1 ];
ub = [ 16, 16, 16, 16, 16, 16, 16, 16, 16, 16, 16, 16 ];
startstack = [ 'in_0', 'in_1', 'in_2', 'in_3', 'in_4', 'in_5', 'in_6', 'in_7', 'in_8', 'in_9', 'in_10', 'in_11', 'in_12', 'in_13', 'in_14', 'in_15', 'in_16', 'in_17', null, null, null, null, null ];
endstack = [ 'in_17', null, null, null, null, null, null, null, null, null, null, null, null, null, null, null, null, null, null, null, null, null, null ];
